H He Li Be B C N O F Ne Na Mg // tricked so Z = order
 1.0000000000000000
    17.8142459456055668    0.0000000000000000    0.0000000000000000
     0.0000000000000000    4.9641105566257835    0.0000000000000000
     0.0000000000000000    0.0000000000000000    9.4988361619900665
 H He Li Be B C N O F Ne Na Mg
  4  4  4   4   4   4   4   4   4   4   8   8
Cartesian
  6.8050419334070797  1.2410276391564459  5.3478449776736383  A  CN12  Co 
 11.0092045466258650  3.7230829174693376  4.1509911843164264  A  CN12  Co
  2.1020810393957028  3.7230829174693376  0.5984268966786058  A  CN12  Co
 15.7121643717824853  1.2410276391564459  8.9004092653114597  A  CN12  Co
  4.4891900495495864  1.2410276391564459  6.1742432773214748  B  CN12  Co
 13.3250564304833592  3.7230829174693376  3.3245928846685913  B  CN12 Co
  4.4179329232531961  3.7230829174693376  1.4248251963264420  B  CN12 Co
 13.3963124879249911  1.2410276391564459  8.0740109656636232  B  CN12 Co
  6.0924722559110718  1.2410276391564459  7.9790221291019154  C   CN12 Co
 11.7217736896944960  3.7230829174693376  1.5198140328881506  C   CN12 Co
  2.8146507168917121  3.7230829174693376  3.2296040481068817  C   CN12 Co
 14.9995952287138543  1.2410276391564459  6.2692321138831826  C   CN12 Co
  5.5224162787662179  1.2410276391564459  0.8548952925744505  D   CN14 Zn
 12.2918296668393481  3.7230829174693376  8.6439405939493650  D   CN14 Zn
  3.3847066940365660  3.7230829174693376  5.6043136490357321  D   CN14 Zn
 14.4295392515690004  1.2410276391564459  3.8945227884205820  D   CN14 Zn
  2.9037221425764455  1.2410276391564459  1.6432985895324281  E   NC15 V
 14.9105240702428095  3.7230829174693376  7.8555377149401799  E   NC15 V
  6.0034010974400278  3.7230829174693376  6.3927165280449181  E   NC15 V
 11.8108448481655408  1.2410276391564459  3.1061196339451471  E   NC15 V
  9.8512775269352382  1.2410276391564459  5.2908515617505802  F   CN16 Nb
  7.9629684186703296  3.7230829174693376  4.2079846002394872  F   CN16 Nb
 16.8700913914731103  3.7230829174693376  0.5414334807555466  F   CN16 Nb
  0.9441545541324545  1.2410276391564459  8.9574026812345195  F   CN16 Nb
  1.5676536432132897  1.2410276391564459  6.5541969327754739  G   CN14 Zn
 16.2465923023922763  3.7230829174693376  2.9446392292145926  G   CN14 Zn
  7.3394693295894928  3.7230829174693376  1.8047788517804402  G   CN14 Zn
 10.4747766160160722  1.2410276391564459  7.6940573102096250  G   CN14 Zn
  7.4463550368483240  1.2410276391564459  2.9161428062181480 H CN12 Co
 10.3678914431846216  3.7230829174693376  6.5826930708068332 H CN12 Co
  1.4607679359544592  3.7230829174693376  7.6655611721782657 H CN12 Co
 16.3534774752237269  1.2410276391564459  1.8332752747768850 H CN12 Co
  2.3514804470056889  1.2410276391564459  4.2079843152744010 I CN14 Zn
 15.4627660330272558  3.7230829174693376  5.2908521316807491 I CN14 Zn
  6.5556425257970945  3.7230829174693376  8.9574021113043489 I CN14 Zn
 11.2586028853810944  1.2410276391564459  0.5414337657206315 I CN14 Zn
  8.4261381541289726  1.2410276391564459  0.1234848701058708 J CN15 V
  9.3881077914765925  3.7230829174693376  9.3753511873969959 J CN15 V
  0.4809848186738098  3.7230829174693376  4.8729030555881021 J CN15 V
 17.3332611269317560  1.2410276391564459  4.6259331064019644 J CN15 V
  0.6234986080961948  0.0000000000000000  2.3747090404975166 K CN12 Co
 17.1907468743389771  0.0000000000000000  7.1241271214925490 K CN12 Co
  8.2836244359635725  0.0000000000000000  7.1241271214925490 K CN12 Co
  9.5306220440693714  0.0000000000000000  2.3747090404975166 K CN12 Co
 17.1907468743389771  2.4820552783128917  7.1241271214925490 K CN12 Co
  0.6234986080961948  2.4820552783128917  2.3747090404975166 K CN12 Co
  9.5306220440693714  2.4820552783128917  2.3747090404975166 K CN12 Co
  8.2836244359635725  2.4820552783128917  7.1241271214925490 K CN12 Co
  5.1305026185634519  2.4820552783128917  3.6095576940620440 L CN14 Zn
 12.6837433270421140  2.4820552783128917  5.8892784679280208 L CN14 Zn
  3.7766203542393315  2.4820552783128917  8.3589757750570772 L CN14 Zn
 14.0376255913662362  2.4820552783128917  1.1398603869329889 L CN14 Zn
 12.6837433270421140  0.0000000000000000  5.8892784679280208 L CN14 Zn
  5.1305026185634519  0.0000000000000000  3.6095576940620440 L CN14 Zn
 14.0376255913662362  0.0000000000000000  1.1398603869329889 L CN14 Zn
  3.7766203542393315  0.0000000000000000  8.3589757750570772 L CN14 Zn
