 Mn0.83Si0.11 , generated from icsd_1514.R.cif, relaxed as W unary
    9.84768033435495     
     0.9806251898489629    0.0017311201474575    0.2252439684343364
     0.2583967554340685    0.9716175883294997    0.0658912138781212
     0.0438083300111889    0.1990210302108792    0.9851486618390327
 H He Li Be B C N O F Ne Na
 1 2 6 6 6 6 6 6 6 2 6 
 direct
   0.5000000000000000  0.5000000000000000  0.5000000000000000  A Z12a
   0.3047319418118887  0.3049042494486180  0.3051184377977801  B Z12b
   0.6952680581881111  0.6950957505513818  0.6948815622022203  B Z12b
   0.1681618766524920  0.0834643391043170  0.7548649847577048  C Z12c
   0.7551262427868876  0.1679771411482893  0.0834758349774939  C Z12c
   0.0832765574314245  0.7553797840303645  0.1676271712267885  C Z12c
   0.8318381233475081  0.9165356608956831  0.2451350152422954  C Z12c
   0.2448737572131127  0.8320228588517106  0.9165241650225062  C Z12c
   0.9167234425685759  0.2446202159696355  0.8323728287732113  C Z12c
   0.1624318451709021  0.3269894426292655  0.8151292507645950  D Z12d
   0.8150151258912489  0.1624733320767752  0.3271313094556009  D Z12d
   0.3270664074582734  0.8153625313642725  0.1621789873480960  D Z12d
   0.8375681548290981  0.6730105573707340  0.1848707492354045  D Z12d
   0.1849848741087511  0.8375266679232245  0.6728686905443992  D Z12d
   0.6729335925417267  0.1846374686357278  0.8378210126519040  D Z12d
   0.2077191612697304  0.3221849559960051  0.0568779247144398  E Z12e
   0.0567332422020174  0.2082044531945010  0.3220952355213488  E Z12e
   0.3219756881832141  0.0569519977101638  0.2079903558492295  E Z12e
   0.7922808387302697  0.6778150440039951  0.9431220752855602  E Z12e
   0.9432667577979829  0.7917955468054987  0.6779047644786512  E Z12e
   0.6780243118167858  0.9430480022898358  0.7920096441507706  E Z12e
   0.4851221204473426  0.2468813323141365  0.0677301894262125  F Z12f
   0.0677213261430259  0.4855816687761421  0.2465578608744688  F Z12f
   0.2468308286440561  0.0675987538504483  0.4852349713202747  F Z12f
   0.5148778795526577  0.7531186676858639  0.9322698105737873  F Z12f
   0.9322786738569743  0.5144183312238575  0.7534421391255312  F Z12f
   0.7531691713559440  0.9324012461495516  0.5147650286797254  F Z12f
   0.5671999468039348  0.3512058351356511  0.2782512082647972  G Z14a
   0.2781096621398176  0.5675418739058590  0.3511589700215934  G Z14a
   0.3509935312537560  0.2781540905499141  0.5676262210936057  G Z14a
   0.4328000531960652  0.6487941648643487  0.7217487917352028  G Z14a
   0.7218903378601822  0.4324581260941409  0.6488410299784066  G Z14a
   0.6490064687462442  0.7218459094500854  0.4323737789063941  G Z14a
   0.5784371833992424  0.6238175654891415  0.2068113546259149  H Z14b
   0.2065952844643196  0.5787589404731778  0.6235127686921382  H Z14b
   0.6240564768574375  0.2069114302065195  0.5784847230260133  H Z14b
   0.4215628166007570  0.3761824345108585  0.7931886453740850  H Z14b
   0.7934047155356806  0.4212410595268221  0.3764872313078618  H Z14b
   0.3759435231425624  0.7930885697934804  0.4215152769739868  H Z14b
   0.3522784628940762  0.5439476050133585  0.0550014979352349  I Z15a
   0.0545970225189560  0.3519631957204002  0.5441202995282950  I Z15a
   0.5439275020294697  0.0547838903099156  0.3519683262960276  I Z15a
   0.6477215371059240  0.4560523949866416  0.9449985020647650  I Z15a
   0.9454029774810444  0.6480368042795996  0.4558797004717048  I Z15a
   0.4560724979705299  0.9452161096900843  0.6480316737039726  I Z15a
   0.0745881318131858  0.0737538214097290  0.0760794662378700  J Z16a
   0.9254118681868142  0.9262461785902713  0.9239205337621299  J Z16a
   0.3882044581783105  0.0692944676416679  0.9055962136376321  K Z16b
   0.9056562929211331  0.3883290697853511  0.0689426764765513  K Z16b
   0.0695318071567961  0.9054494562485663  0.3885611113496243  K Z16b
   0.6117955418216898  0.9307055323583323  0.0944037863623676  K Z16b
   0.0943437070788670  0.6116709302146487  0.9310573235234491  K Z16b
   0.9304681928432041  0.0945505437514336  0.6114388886503761  K Z16b
