 Al7Nb24Ni21 , ICSD = 58018 , generated by convertSF from icsd_58018.M.cif, 12 12 12 12 12 14 14 15 15 16 16
    9.303000
    1.000000    0.000000    0.000000
    0.000000    0.530259    0.000000
    0.000000    0.000000    1.748468
H  He Li Be B  C  N  O F  Ne Na
4  4  4  8  8  4  4  4 4  4  4
 direct
    0.071400    0.250000    0.377500   A 12a VII
    0.428600    0.750000    0.877500   A 12a VII
    0.571400    0.250000    0.122500   A 12a VII
    0.928600    0.750000    0.622500   A 12a VII
    0.325500    0.250000    0.330300   B 12b VIII
    0.174500    0.750000    0.830300   B 12b VIII
    0.825500    0.250000    0.169700   B 12b VIII
    0.674500    0.750000    0.669700   B 12b VIII
    0.816800    0.250000    0.422200   C 12c IX
    0.683200    0.750000    0.922200   C 12c IX
    0.316800    0.250000    0.077800   C 12c IX
    0.183200    0.750000    0.577800   C 12c IX
    0.111800    0.004800    0.704900   D 12d X
    0.388200    0.504800    0.204900   D 12d X
    0.111800    0.495200    0.704900   D 12d X
    0.611800    0.004800    0.795100   D 12d X
    0.888200    0.995200    0.295100   D 12d X
    0.611800    0.495200    0.795100   D 12d X
    0.888200    0.504800    0.295100   D 12d X
    0.388200    0.995200    0.204900   D 12d X
    0.255000    0.996900    0.455000   E 12e XI
    0.245000    0.496900    0.955000   E 12e XI
    0.255000    0.503100    0.455000   E 12e XI
    0.755000    0.996900    0.045000   E 12e XI
    0.745000    0.003100    0.545000   E 12e XI
    0.755000    0.503100    0.045000   E 12e XI
    0.745000    0.496900    0.545000   E 12e XI
    0.245000    0.003100    0.955000   E 12e XI
    0.059300    0.250000    0.850600   F 14a I
    0.440700    0.750000    0.350600   F 14a I
    0.559300    0.250000    0.649400   F 14a I
    0.940700    0.750000    0.149400   F 14a I
    0.299600    0.250000    0.601600   G 14b II
    0.200400    0.750000    0.101600   G 14b II
    0.799600    0.250000    0.898400   G 14b II
    0.700400    0.750000    0.398400   G 14b II
    0.524200    0.250000    0.459000   H 15a III
    0.975800    0.750000    0.959000   H 15a III
    0.024200    0.250000    0.041000   H 15a III
    0.475800    0.750000    0.541000   H 15a III
    0.616400    0.250000    0.293200   I 15b IV
    0.883600    0.750000    0.793200   I 15b IV
    0.116400    0.250000    0.206800   I 15b IV
    0.383600    0.750000    0.706800   I 15b IV
    0.014400    0.250000    0.551800   J 16a V
    0.485600    0.750000    0.051800   J 16a V
    0.514400    0.250000    0.948200   J 16a V
    0.985600    0.750000    0.448200   J 16a V
    0.838800    0.250000    0.706200   K 16b VI
    0.661200    0.750000    0.206200   K 16b VI
    0.338800    0.250000    0.793800   K 16b VI
    0.161200    0.750000    0.293800   K 16b VI
