 Mo1Ni1 , ICSD =       105044  , generated by convertSF from icsd_105044.cif
    9.108000
    1.000000    0.000000    0.000000
    0.000000    1.000000    0.000000
    0.000000    0.000000    0.971893
H He Li Be B C N O F Ne Na Mg Al Si
4 4 4 4 4 4 4 4 4 4 4 4 4 4
 direct
    0.176300    0.483200    0.642500   A1  1  VII (CN15)
    0.676300    0.016800    0.357500   A2  1  
    0.823700    0.983200    0.857500   A3  1
    0.323700    0.516800    0.142500   A4  1
    0.033800    0.339800    0.180700   B1  2  XIV (CN15)
    0.533800    0.160200    0.819300   B2  2
    0.966200    0.839800    0.319300   B3  2
    0.466200    0.660200    0.680700   B4  2
    0.228900    0.286500    0.409800   C1  3  III (CN16)
    0.728900    0.213500    0.590200   C2  3
    0.771100    0.786500    0.090200   C3  3
    0.271100    0.713500    0.909800   C4  3
    0.264800    0.199300    0.748600   D1  4  I (CN14)
    0.764800    0.300700    0.251400   D2  4
    0.735200    0.699300    0.751400   D3  4
    0.235200    0.800700    0.248600   D4  4
    0.318600    0.246400    0.074000   E1  5  XIII (CN14)
    0.818600    0.253600    0.926000   E2  5
    0.681400    0.746400    0.426000   E3  5
    0.181400    0.753600    0.574000   E4  5
    0.002900    0.196900    0.676700   F1  6  II (CN14)
    0.502900    0.303100    0.323300   F2  6
    0.997100    0.696900    0.823300   F3  6
    0.497100    0.803100    0.176700   F4  6
    0.188500    0.015700    0.496000   G1  7  V (CN14)
    0.688500    0.484300    0.504000   G2  7
    0.811500    0.515700    0.004000   G3  7
    0.311500    0.984300    0.996000   G4  7
    0.103100    0.419200    0.913300   H1  8  XI (CN14)
    0.603100    0.080800    0.086700   H2  8
    0.896900    0.919200    0.586700   H3  8
    0.396900    0.580800    0.413300   H4  8
    0.451900    0.115300    0.532200   I1  9  IV (CN12)
    0.951900    0.384700    0.467800   I2  9
    0.548100    0.615300    0.967800   I3  9
    0.048100    0.884700    0.032200   I4  9
    0.442400    0.366200    0.597100   J1 10  VI (CN12)
    0.942400    0.133800    0.402900   J2 10
    0.557600    0.866200    0.902900   J3 10
    0.057600    0.633800    0.097100   J4 10
    0.388200    0.052300    0.274800   K1 11  VIII (CN12)
    0.888200    0.447700    0.725200   K2 11
    0.611800    0.552300    0.225200   K3 11
    0.111800    0.947700    0.774800   K4 11
    0.133700    0.070700    0.215700   L1 12  IX   (CN12)
    0.633700    0.429300    0.784300   L2 12
    0.866300    0.570700    0.284300   L3 12
    0.366300    0.929300    0.715700   L4 12
    0.376800    0.435800    0.856700   M1 13  X    (CN12)
    0.876800    0.064200    0.143300   M2 13
    0.623200    0.935800    0.643300   M3 13
    0.123200    0.564200    0.356700   M4 13
    0.068000    0.144200    0.952900   N1 14  XII (CN12)
    0.568000    0.355800    0.047100   N2 14
    0.932000    0.644200    0.547100   N3 14
    0.432000    0.855800    0.452900   N4 14
